Version identifier: 22.1.1.0 | 2022-11-28 | 9160aff4d
CPXPARAM_ClockType                               1
CPXPARAM_Read_DataCheck                          1
CPXPARAM_Threads                                 1
CPXPARAM_TimeLimit                               7200
CPXPARAM_MIP_Tolerances_AbsMIPGap                0
CPXPARAM_MIP_Tolerances_MIPGap                   0
CPXPARAM_MIP_Tolerances_Integrality              0
Tried aggregator 5 times.
MIP Presolve eliminated 28368 rows and 6678 columns.
MIP Presolve modified 18 coefficients.
Aggregator did 2727 substitutions.
Reduced MIP has 11310 rows, 5443 columns, and 34392 nonzeros.
Reduced MIP has 5443 binaries, 0 generals, 0 SOSs, and 0 indicators.
Presolve time = 0.11 sec. (82.27 ticks)
Found incumbent of value 0.000000 after 0.13 sec. (90.77 ticks)
Probing time = 0.01 sec. (3.52 ticks)
Tried aggregator 1 time.
Detecting symmetries...
Reduced MIP has 11310 rows, 5443 columns, and 34392 nonzeros.
Reduced MIP has 5443 binaries, 0 generals, 0 SOSs, and 0 indicators.
Presolve time = 0.04 sec. (24.02 ticks)
Probing time = 0.00 sec. (3.44 ticks)
Clique table members: 9745.
MIP emphasis: balance optimality and feasibility.
MIP search method: dynamic search.
Parallel mode: none, using 1 thread.
Root relaxation solution time = 1.77 sec. (1385.99 ticks)

        Nodes                                         Cuts/
   Node  Left     Objective  IInf  Best Integer    Best Bound    ItCnt     Gap

*     0+    0                            0.0000     4700.0000              --- 
      0     0     4700.0000  1705        0.0000     4700.0000     5598     --- 
*     0+    0                         4668.0000     4700.0000             0.69%
      0     0     4700.0000  1606     4668.0000     Cuts: 252     6352    0.69%
*     0+    0                         4699.0000     4700.0000             0.02%
      0     0     4700.0000  1580     4699.0000    Cuts: 1716     7816    0.02%
*     0+    0                         4700.0000     4700.0000             0.00%
      0     0        cutoff           4700.0000     4700.0000     7816    0.00%
Elapsed time = 8.32 sec. (6595.91 ticks, tree = 0.01 MB, solutions = 4)

Clique cuts applied:  1458
Implied bound cuts applied:  3
Zero-half cuts applied:  16
Lift and project cuts applied:  1
Gomory fractional cuts applied:  1

Root node processing (before b&c):
  Real time             =    8.32 sec. (6596.84 ticks)
Sequential b&c:
  Real time             =    0.00 sec. (0.00 ticks)
                          ------------
Total (root+branch&cut) =    8.32 sec. (6596.84 ticks)
Solution is feasible.

---------------------
@@@ MIP_optimal
>>> Benchmark mc2024_track1_184.cnf k 10 OPT 4700 TimeCost 17.20751142501831 TimeSolve 8.403276681900024 TimeRead 0.005937814712524414 TimeTrans 8.798296928405762
